(set-info :smt-lib-version 2.6)
(set-logic UF)
(set-info :source |Benchmarks from the paper: "Extending Sledgehammer with SMT Solvers" by Jasmin Blanchette, Sascha Bohme, and Lawrence C. Paulson, CADE 2011.  Translated to SMT2 by Andrew Reynolds and Morgan Deters.|)
(set-info :category "industrial")
(set-info :status unsat)
(declare-sort S1 0)
(declare-sort S2 0)
(declare-sort S3 0)
(declare-sort S4 0)
(declare-sort S5 0)
(declare-sort S6 0)
(declare-sort S7 0)
(declare-sort S8 0)
(declare-sort S9 0)
(declare-sort S10 0)
(declare-sort S11 0)
(declare-sort S12 0)
(declare-sort S13 0)
(declare-sort S14 0)
(declare-sort S15 0)
(declare-sort S16 0)
(declare-sort S17 0)
(declare-sort S18 0)
(declare-sort S19 0)
(declare-sort S20 0)
(declare-sort S21 0)
(declare-sort S22 0)
(declare-sort S23 0)
(declare-sort S24 0)
(declare-sort S25 0)
(declare-sort S26 0)
(declare-sort S27 0)
(declare-sort S28 0)
(declare-sort S29 0)
(declare-sort S30 0)
(declare-sort S31 0)
(declare-fun f1 () S1)
(declare-fun f2 () S1)
(declare-fun f3 (S9 S3) S10)
(declare-fun f4 (S11 S2) S9)
(declare-fun f5 () S11)
(declare-fun f6 (S12 S4) S10)
(declare-fun f7 () S12)
(declare-fun f8 (S5 S4 S4) S1)
(declare-fun f9 (S5 S2 S6 S8 S4) S1)
(declare-fun f10 (S13 S10) S6)
(declare-fun f11 (S14 S7) S13)
(declare-fun f12 (S15 S6) S14)
(declare-fun f13 () S15)
(declare-fun f14 (S16 S8) S8)
(declare-fun f15 (S17 S4) S16)
(declare-fun f16 (S18 S7) S17)
(declare-fun f17 () S18)
(declare-fun f18 (S19 S8) S16)
(declare-fun f19 () S19)
(declare-fun f20 (S20 S7) S16)
(declare-fun f21 () S20)
(declare-fun f22 (S21 S3) S8)
(declare-fun f23 () S21)
(declare-fun f24 (S5 S2 S6 S8 S4) S1)
(declare-fun f25 (S6 S7) S10)
(declare-fun f26 (S5 S2 S3 S4) S1)
(declare-fun f27 (S22 S7) S23)
(declare-fun f28 () S22)
(declare-fun f29 () S7)
(declare-fun f30 (S3) S23)
(declare-fun f31 () S3)
(declare-fun f32 (S5 S2 S22 S6) S1)
(declare-fun f33 () S5)
(declare-fun f34 () S2)
(declare-fun f35 () S6)
(declare-fun f36 () S4)
(declare-fun f37 (S24 S25) S23)
(declare-fun f38 (S26 S23) S24)
(declare-fun f39 (S27 S25) S26)
(declare-fun f40 (S24) S27)
(declare-fun f41 (S28 S25) S10)
(declare-fun f42 (S29 S10) S28)
(declare-fun f43 (S30 S25) S29)
(declare-fun f44 (S31 S28) S30)
(declare-fun f45 () S31)
(declare-fun f46 () S8)
(declare-fun f47 () S4)
(declare-fun f48 () S4)
(assert (not (= f1 f2)))
(assert (forall ((?v0 S2) (?v1 S3) (?v2 S4) (?v3 S5) (?v4 S4) (?v5 S6) (?v6 S7) (?v7 S8) (?v8 S4)) (=> (= (f3 (f4 f5 ?v0) ?v1) (f6 f7 ?v2)) (=> (= (f8 ?v3 ?v2 ?v4) f1) (=> (= (f9 ?v3 ?v0 (f10 (f11 (f12 f13 ?v5) ?v6) (f6 f7 ?v4)) ?v7 ?v8) f1) (= (f9 ?v3 ?v0 ?v5 (f14 (f15 (f16 f17 ?v6) ?v4) (f14 (f18 f19 (f14 (f20 f21 ?v6) (f22 f23 ?v1))) ?v7)) ?v8) f1))))))
(assert (forall ((?v0 S5) (?v1 S2) (?v2 S6) (?v3 S8) (?v4 S4)) (=> (= (f9 ?v0 ?v1 ?v2 ?v3 ?v4) f1) (= (f24 ?v0 ?v1 ?v2 ?v3 ?v4) f1))))
(assert (forall ((?v0 S5) (?v1 S2) (?v2 S6) (?v3 S8) (?v4 S4)) (=> (= (f24 ?v0 ?v1 ?v2 ?v3 ?v4) f1) (= (f9 ?v0 ?v1 ?v2 ?v3 ?v4) f1))))
(assert (forall ((?v0 S6) (?v1 S7) (?v2 S10)) (= (f25 (f10 (f11 (f12 f13 ?v0) ?v1) ?v2) ?v1) ?v2)))
(assert (forall ((?v0 S5) (?v1 S2) (?v2 S3) (?v3 S4)) (= (= (f26 ?v0 ?v1 ?v2 ?v3) f1) (exists ((?v4 S4)) (and (= (f3 (f4 f5 ?v1) ?v2) (f6 f7 ?v4)) (= (f8 ?v0 ?v4 ?v3) f1))))))
(assert (forall ((?v0 S6) (?v1 S7)) (= (f10 (f11 (f12 f13 ?v0) ?v1) (f25 ?v0 ?v1)) ?v0)))
(assert (= (f27 f28 f29) (f30 f31)))
(assert (= (f32 f33 f34 f28 (f10 (f11 (f12 f13 f35) f29) (f6 f7 f36))) f1))
(assert (forall ((?v0 S5) (?v1 S2) (?v2 S22) (?v3 S6)) (= (= (f32 ?v0 ?v1 ?v2 ?v3) f1) (forall ((?v4 S7) (?v5 S3)) (=> (= (f27 ?v2 ?v4) (f30 ?v5)) (exists ((?v6 S4)) (and (= (f25 ?v3 ?v4) (f6 f7 ?v6)) (= (f26 ?v0 ?v1 ?v5 ?v6) f1))))))))
(assert (forall ((?v0 S6) (?v1 S7) (?v2 S4) (?v3 S7) (?v4 S4)) (let ((?v_1 (f6 f7 ?v4)) (?v_0 (= ?v3 ?v1))) (= (= (f25 (f10 (f11 (f12 f13 ?v0) ?v1) (f6 f7 ?v2)) ?v3) ?v_1) (or (and ?v_0 (= ?v2 ?v4)) (and (not ?v_0) (= (f25 ?v0 ?v3) ?v_1)))))))
(assert (forall ((?v0 S24) (?v1 S25) (?v2 S3) (?v3 S25) (?v4 S3)) (let ((?v_1 (f30 ?v4)) (?v_0 (= ?v3 ?v1))) (= (= (f37 (f38 (f39 (f40 ?v0) ?v1) (f30 ?v2)) ?v3) ?v_1) (or (and ?v_0 (= ?v2 ?v4)) (and (not ?v_0) (= (f37 ?v0 ?v3) ?v_1)))))))
(assert (forall ((?v0 S28) (?v1 S25) (?v2 S4) (?v3 S25) (?v4 S4)) (let ((?v_1 (f6 f7 ?v4)) (?v_0 (= ?v3 ?v1))) (= (= (f41 (f42 (f43 (f44 f45 ?v0) ?v1) (f6 f7 ?v2)) ?v3) ?v_1) (or (and ?v_0 (= ?v2 ?v4)) (and (not ?v_0) (= (f41 ?v0 ?v3) ?v_1)))))))
(assert (not (=> (and (= (f24 f33 f34 (f10 (f11 (f12 f13 f35) f29) (f6 f7 f36)) f46 f47) f1) (= (f8 f33 f47 f48) f1)) (=> (= (f26 f33 f34 f31 f36) f1) (exists ((?v0 S4)) (and (= (f24 f33 f34 f35 (f14 (f15 (f16 f17 f29) f36) (f14 (f18 f19 (f14 (f20 f21 f29) (f22 f23 f31))) f46)) ?v0) f1) (= (f8 f33 ?v0 f48) f1)))))))
(check-sat)
(exit)
